benchmarks_CP/INST_64x64/50/inst64x64_50_55.dzn
S=8;
start=[|
63,	42,	34,	1,	15,	-1,	-1,	3,	27,	-1,	18,	4,	39,	58,	13,	57,	12,	26,	14,	31,	52,	8,	-1,	33,	44,	2,	30,	48,	-1,	-1,	-1,	-1,	-1,	-1,	-1,	38,	-1,	-1,	-1,	-1,	43,	54,	-1,	-1,	-1,	-1,	19,	53,	-1,	9,	-1,	6,	59,	7,	28,	10,	25,	35,	16,	60,	-1,	-1,	-1,	-1|
-1,	-1,	-1,	56,	-1,	-1,	35,	-1,	26,	46,	36,	-1,	-1,	-1,	52,	47,	-1,	54,	3,	-1,	60,	-1,	58,	42,	-1,	-1,	-1,	-1,	-1,	40,	-1,	-1,	-1,	2,	-1,	-1,	32,	19,	-1,	-1,	-1,	-1,	45,	-1,	-1,	-1,	49,	-1,	43,	-1,	11,	-1,	-1,	-1,	12,	34,	-1,	38,	24,	-1,	-1,	-1,	-1,	-1|
-1,	38,	-1,	53,	-1,	55,	-1,	-1,	-1,	17,	15,	16,	-1,	-1,	-1,	19,	10,	-1,	20,	-1,	-1,	40,	50,	59,	-1,	1,	-1,	-1,	-1,	-1,	54,	-1,	-1,	-1,	29,	-1,	-1,	-1,	-1,	8,	9,	-1,	-1,	61,	-1,	-1,	-1,	-1,	-1,	-1,	-1,	-1,	5,	-1,	46,	-1,	-1,	7,	-1,	-1,	-1,	-1,	34,	2|
21,	-1,	-1,	-1,	8,	-1,	52,	4,	10,	35,	56,	-1,	-1,	-1,	11,	14,	-1,	-1,	-1,	45,	64,	-1,	-1,	61,	-1,	-1,	46,	-1,	-1,	34,	9,	-1,	-1,	17,	54,	40,	37,	18,	-1,	-1,	31,	-1,	-1,	-1,	36,	-1,	22,	6,	49,	-1,	51,	-1,	-1,	27,	-1,	39,	55,	-1,	-1,	-1,	57,	58,	-1,	-1|
-1,	40,	-1,	49,	-1,	54,	-1,	-1,	-1,	-1,	2,	33,	-1,	-1,	62,	-1,	-1,	-1,	-1,	-1,	-1,	-1,	-1,	-1,	41,	-1,	6,	-1,	38,	-1,	-1,	-1,	64,	30,	24,	-1,	35,	-1,	-1,	-1,	60,	-1,	39,	16,	-1,	7,	25,	-1,	-1,	-1,	23,	-1,	-1,	-1,	-1,	58,	-1,	31,	10,	36,	-1,	18,	43,	-1|
18,	5,	-1,	14,	-1,	7,	60,	11,	38,	-1,	-1,	-1,	6,	42,	34,	59,	-1,	-1,	-1,	-1,	25,	16,	53,	57,	17,	21,	-1,	3,	36,	24,	-1,	-1,	27,	28,	9,	-1,	-1,	47,	58,	12,	-1,	51,	13,	15,	56,	10,	-1,	-1,	-1,	26,	-1,	55,	-1,	-1,	1,	-1,	-1,	-1,	33,	-1,	23,	40,	64,	45|
51,	33,	43,	58,	9,	59,	-1,	2,	30,	21,	-1,	-1,	31,	54,	-1,	-1,	-1,	5,	-1,	6,	4,	-1,	22,	17,	25,	-1,	-1,	57,	35,	-1,	-1,	55,	3,	49,	-1,	-1,	-1,	34,	46,	-1,	-1,	23,	-1,	-1,	-1,	-1,	-1,	40,	52,	36,	-1,	20,	13,	61,	53,	18,	63,	-1,	-1,	-1,	-1,	14,	39,	-1|
-1,	-1,	41,	16,	30,	13,	45,	-1,	-1,	-1,	-1,	-1,	5,	-1,	-1,	44,	39,	-1,	-1,	-1,	19,	23,	-1,	46,	-1,	-1,	-1,	-1,	-1,	-1,	-1,	-1,	33,	-1,	4,	-1,	-1,	-1,	51,	25,	-1,	-1,	-1,	-1,	-1,	34,	-1,	48,	63,	-1,	-1,	-1,	8,	38,	-1,	-1,	-1,	-1,	-1,	-1,	54,	50,	-1,	47|
24,	-1,	-1,	-1,	-1,	20,	-1,	-1,	-1,	-1,	-1,	21,	-1,	44,	35,	49,	-1,	-1,	55,	60,	-1,	-1,	19,	48,	-1,	33,	-1,	29,	-1,	-1,	-1,	53,	-1,	46,	41,	-1,	-1,	-1,	9,	-1,	47,	-1,	52,	28,	-1,	64,	-1,	-1,	-1,	3,	-1,	-1,	40,	13,	-1,	51,	-1,	-1,	18,	-1,	-1,	6,	-1,	22|
40,	39,	-1,	43,	-1,	-1,	-1,	58,	-1,	-1,	38,	-1,	-1,	59,	19,	-1,	15,	-1,	-1,	2,	16,	-1,	-1,	26,	11,	7,	44,	-1,	-1,	17,	3,	52,	-1,	42,	23,	54,	51,	-1,	30,	10,	-1,	-1,	27,	-1,	22,	20,	57,	13,	-1,	-1,	-1,	-1,	46,	-1,	29,	-1,	36,	24,	-1,	33,	32,	-1,	31,	-1|
-1,	2,	-1,	-1,	-1,	-1,	11,	-1,	-1,	-1,	-1,	58,	-1,	6,	18,	-1,	-1,	-1,	62,	-1,	-1,	-1,	-1,	44,	31,	51,	48,	39,	23,	-1,	-1,	-1,	-1,	-1,	-1,	26,	25,	-1,	16,	-1,	50,	24,	10,	32,	-1,	54,	29,	-1,	-1,	-1,	61,	-1,	47,	-1,	17,	-1,	43,	8,	9,	4,	-1,	60,	20,	57|
-1,	-1,	26,	15,	-1,	-1,	-1,	35,	-1,	-1,	29,	51,	24,	43,	-1,	-1,	-1,	64,	-1,	20,	-1,	-1,	-1,	31,	27,	13,	40,	6,	-1,	-1,	-1,	-1,	-1,	-1,	53,	-1,	-1,	48,	34,	37,	-1,	14,	55,	33,	-1,	21,	-1,	38,	-1,	16,	-1,	62,	41,	1,	25,	-1,	44,	28,	11,	-1,	10,	-1,	42,	-1|
22,	44,	17,	-1,	41,	34,	-1,	-1,	-1,	-1,	13,	-1,	-1,	-1,	33,	3,	-1,	-1,	1,	18,	-1,	-1,	-1,	-1,	-1,	-1,	15,	54,	-1,	-1,	55,	-1,	6,	59,	-1,	-1,	29,	28,	31,	32,	51,	-1,	-1,	-1,	-1,	43,	-1,	16,	20,	14,	57,	26,	9,	58,	19,	-1,	-1,	40,	-1,	-1,	39,	2,	-1,	52|
48,	46,	-1,	-1,	64,	-1,	-1,	18,	52,	-1,	27,	-1,	62,	47,	63,	32,	17,	-1,	-1,	54,	-1,	-1,	-1,	23,	24,	-1,	-1,	-1,	-1,	9,	-1,	-1,	-1,	-1,	14,	-1,	-1,	-1,	-1,	-1,	5,	-1,	-1,	59,	-1,	-1,	-1,	-1,	-1,	-1,	-1,	-1,	-1,	-1,	6,	11,	-1,	15,	-1,	53,	-1,	-1,	-1,	16|
-1,	-1,	-1,	-1,	6,	-1,	-1,	-1,	-1,	30,	-1,	11,	22,	45,	57,	-1,	-1,	-1,	-1,	28,	42,	-1,	38,	-1,	20,	-1,	1,	2,	41,	-1,	50,	26,	-1,	60,	-1,	-1,	-1,	-1,	-1,	33,	-1,	3,	37,	-1,	46,	25,	-1,	-1,	-1,	39,	36,	-1,	24,	-1,	54,	52,	-1,	59,	17,	23,	56,	5,	61,	48|
23,	-1,	53,	38,	28,	-1,	7,	59,	17,	2,	-1,	-1,	48,	-1,	50,	54,	27,	-1,	12,	40,	-1,	-1,	14,	35,	-1,	37,	56,	-1,	-1,	61,	-1,	16,	-1,	21,	8,	44,	1,	24,	63,	57,	11,	-1,	-1,	41,	30,	4,	-1,	26,	5,	-1,	55,	49,	18,	-1,	45,	31,	-1,	64,	-1,	-1,	-1,	-1,	-1,	3|
-1,	-1,	52,	-1,	-1,	38,	-1,	15,	-1,	-1,	21,	-1,	64,	31,	-1,	5,	-1,	-1,	40,	-1,	-1,	10,	46,	-1,	-1,	-1,	22,	-1,	13,	-1,	-1,	-1,	-1,	-1,	30,	18,	-1,	-1,	-1,	47,	-1,	19,	32,	-1,	25,	61,	24,	42,	-1,	-1,	-1,	27,	-1,	-1,	20,	57,	41,	33,	28,	39,	35,	62,	-1,	29|
-1,	-1,	-1,	17,	-1,	-1,	-1,	47,	12,	-1,	-1,	-1,	3,	57,	-1,	-1,	61,	-1,	31,	19,	26,	60,	-1,	14,	39,	55,	7,	10,	-1,	-1,	38,	-1,	25,	-1,	52,	-1,	-1,	21,	43,	-1,	-1,	-1,	63,	-1,	-1,	-1,	-1,	29,	-1,	-1,	46,	4,	36,	6,	18,	-1,	45,	-1,	-1,	20,	-1,	-1,	48,	-1|
-1,	20,	-1,	12,	18,	46,	-1,	42,	58,	-1,	19,	-1,	-1,	-1,	-1,	-1,	22,	-1,	63,	-1,	-1,	55,	-1,	47,	52,	5,	-1,	-1,	-1,	-1,	-1,	11,	-1,	-1,	-1,	-1,	54,	9,	59,	7,	-1,	-1,	43,	-1,	27,	3,	4,	-1,	35,	41,	-1,	13,	62,	-1,	23,	16,	31,	-1,	-1,	-1,	50,	61,	8,	40|
35,	7,	23,	-1,	4,	41,	-1,	31,	-1,	-1,	-1,	-1,	-1,	-1,	48,	34,	21,	8,	-1,	64,	38,	-1,	11,	-1,	-1,	15,	25,	44,	-1,	29,	-1,	47,	-1,	24,	-1,	-1,	-1,	-1,	-1,	19,	-1,	-1,	26,	22,	13,	40,	17,	18,	-1,	51,	-1,	-1,	-1,	-1,	37,	-1,	9,	-1,	-1,	55,	-1,	-1,	6,	-1|
-1,	3,	60,	-1,	-1,	11,	59,	-1,	-1,	6,	41,	17,	-1,	-1,	-1,	-1,	25,	2,	50,	-1,	-1,	48,	39,	-1,	64,	34,	23,	20,	28,	-1,	-1,	-1,	-1,	27,	56,	15,	-1,	-1,	-1,	-1,	-1,	-1,	8,	51,	-1,	58,	-1,	-1,	26,	42,	-1,	-1,	29,	40,	61,	24,	-1,	4,	-1,	14,	53,	-1,	-1,	18|
-1,	10,	13,	-1,	-1,	33,	50,	21,	-1,	25,	44,	18,	-1,	63,	1,	36,	-1,	27,	-1,	-1,	43,	37,	-1,	-1,	-1,	-1,	-1,	45,	4,	51,	-1,	62,	-1,	3,	6,	-1,	-1,	-1,	-1,	55,	48,	28,	57,	-1,	20,	-1,	23,	15,	22,	54,	-1,	-1,	60,	-1,	5,	-1,	58,	42,	7,	-1,	11,	12,	-1,	-1|
-1,	58,	-1,	39,	27,	-1,	56,	-1,	20,	23,	11,	-1,	28,	-1,	-1,	-1,	-1,	29,	15,	62,	13,	45,	59,	3,	-1,	48,	18,	-1,	-1,	60,	37,	-1,	-1,	12,	-1,	-1,	-1,	-1,	-1,	-1,	-1,	41,	-1,	44,	7,	6,	47,	5,	-1,	1,	32,	63,	55,	-1,	-1,	38,	-1,	10,	-1,	17,	-1,	-1,	-1,	-1|
-1,	-1,	-1,	-1,	-1,	19,	-1,	-1,	-1,	38,	-1,	62,	-1,	35,	2,	-1,	57,	-1,	23,	-1,	30,	53,	-1,	-1,	40,	24,	9,	59,	-1,	-1,	41,	-1,	10,	13,	51,	-1,	20,	49,	29,	34,	55,	-1,	1,	-1,	37,	12,	50,	64,	-1,	-1,	-1,	-1,	28,	52,	-1,	17,	60,	26,	-1,	15,	-1,	-1,	46,	63|
-1,	50,	-1,	10,	39,	-1,	-1,	-1,	51,	57,	-1,	47,	-1,	-1,	46,	8,	5,	25,	-1,	-1,	22,	-1,	40,	-1,	38,	-1,	24,	27,	-1,	3,	7,	12,	9,	32,	-1,	34,	-1,	-1,	35,	-1,	29,	18,	-1,	26,	-1,	48,	16,	58,	-1,	-1,	37,	-1,	53,	-1,	43,	-1,	61,	45,	-1,	-1,	-1,	36,	-1,	64|
1,	14,	18,	33,	26,	-1,	-1,	57,	35,	49,	-1,	-1,	-1,	53,	-1,	-1,	64,	20,	-1,	8,	48,	11,	23,	-1,	55,	16,	32,	28,	-1,	42,	15,	-1,	4,	-1,	61,	-1,	-1,	-1,	-1,	46,	63,	13,	-1,	-1,	-1,	-1,	59,	-1,	38,	-1,	-1,	17,	34,	36,	21,	-1,	27,	-1,	39,	-1,	-1,	9,	-1,	10|
-1,	-1,	16,	25,	-1,	-1,	63,	7,	6,	-1,	17,	64,	13,	18,	45,	-1,	28,	60,	54,	-1,	-1,	-1,	34,	-1,	48,	8,	20,	22,	-1,	57,	-1,	-1,	11,	51,	39,	-1,	31,	23,	19,	-1,	-1,	-1,	61,	-1,	-1,	47,	-1,	-1,	1,	40,	35,	-1,	-1,	-1,	-1,	-1,	62,	-1,	-1,	-1,	46,	55,	32,	4|
36,	-1,	32,	-1,	-1,	64,	-1,	-1,	42,	11,	-1,	-1,	41,	37,	-1,	-1,	-1,	-1,	17,	-1,	29,	12,	-1,	30,	-1,	49,	-1,	-1,	9,	-1,	23,	-1,	26,	-1,	58,	-1,	-1,	8,	-1,	-1,	35,	-1,	-1,	62,	54,	-1,	5,	25,	-1,	22,	-1,	51,	52,	-1,	-1,	-1,	-1,	-1,	-1,	19,	-1,	-1,	-1,	28|
56,	27,	8,	-1,	35,	-1,	-1,	34,	-1,	48,	-1,	-1,	2,	-1,	23,	-1,	49,	-1,	44,	26,	32,	-1,	15,	7,	-1,	63,	36,	-1,	60,	41,	5,	58,	62,	-1,	12,	-1,	-1,	-1,	18,	-1,	17,	-1,	-1,	40,	53,	51,	37,	1,	-1,	-1,	54,	46,	39,	-1,	-1,	-1,	52,	16,	-1,	-1,	31,	43,	24,	11|
-1,	-1,	-1,	4,	54,	15,	53,	-1,	36,	63,	-1,	12,	-1,	-1,	10,	-1,	14,	-1,	2,	33,	39,	62,	24,	-1,	-1,	18,	26,	-1,	30,	-1,	-1,	51,	7,	56,	40,	49,	64,	42,	-1,	27,	23,	6,	46,	43,	9,	-1,	20,	-1,	-1,	-1,	3,	8,	-1,	47,	-1,	-1,	34,	-1,	38,	-1,	-1,	-1,	57,	44|
38,	49,	42,	-1,	-1,	-1,	23,	41,	-1,	44,	5,	-1,	59,	3,	22,	16,	-1,	6,	-1,	-1,	-1,	46,	55,	56,	-1,	-1,	13,	-1,	-1,	-1,	-1,	2,	43,	29,	57,	-1,	14,	36,	-1,	63,	-1,	32,	60,	19,	28,	-1,	34,	31,	-1,	27,	-1,	-1,	-1,	-1,	-1,	7,	-1,	30,	-1,	25,	-1,	-1,	54,	35|
-1,	-1,	11,	-1,	46,	24,	51,	-1,	-1,	-1,	39,	-1,	40,	19,	55,	-1,	35,	16,	57,	-1,	-1,	-1,	27,	-1,	34,	-1,	-1,	1,	-1,	-1,	-1,	21,	13,	-1,	37,	6,	-1,	53,	44,	-1,	-1,	-1,	-1,	-1,	-1,	-1,	-1,	12,	32,	61,	-1,	28,	-1,	-1,	60,	-1,	-1,	-1,	41,	-1,	14,	-1,	-1,	7|
59,	45,	-1,	13,	-1,	-1,	-1,	20,	33,	64,	61,	40,	-1,	23,	58,	24,	-1,	3,	-1,	38,	7,	30,	-1,	-1,	-1,	-1,	12,	49,	18,	-1,	47,	-1,	-1,	9,	-1,	-1,	62,	-1,	48,	-1,	-1,	42,	-1,	35,	31,	-1,	-1,	63,	51,	11,	10,	-1,	-1,	-1,	-1,	41,	32,	22,	-1,	-1,	27,	29,	-1,	36|
-1,	17,	-1,	55,	58,	16,	29,	-1,	57,	-1,	-1,	-1,	-1,	-1,	14,	35,	40,	63,	-1,	-1,	-1,	-1,	8,	-1,	-1,	60,	51,	37,	31,	36,	20,	22,	-1,	-1,	44,	-1,	-1,	32,	-1,	-1,	-1,	46,	38,	47,	-1,	-1,	-1,	39,	56,	-1,	62,	18,	27,	54,	-1,	4,	-1,	-1,	12,	-1,	-1,	42,	2,	-1|
53,	-1,	22,	48,	31,	-1,	26,	61,	41,	60,	37,	-1,	-1,	-1,	-1,	21,	46,	55,	10,	-1,	-1,	6,	49,	-1,	-1,	52,	59,	30,	11,	-1,	56,	64,	-1,	-1,	-1,	-1,	7,	-1,	36,	-1,	-1,	20,	50,	-1,	-1,	-1,	-1,	62,	25,	-1,	12,	16,	15,	-1,	-1,	-1,	-1,	-1,	35,	-1,	-1,	51,	18,	17|
-1,	-1,	-1,	57,	47,	-1,	54,	-1,	56,	-1,	-1,	32,	53,	-1,	-1,	-1,	41,	-1,	-1,	-1,	-1,	35,	-1,	27,	-1,	-1,	-1,	-1,	-1,	-1,	-1,	3,	-1,	10,	42,	61,	-1,	-1,	-1,	-1,	28,	25,	49,	-1,	-1,	-1,	-1,	55,	9,	7,	-1,	2,	-1,	-1,	-1,	59,	-1,	39,	50,	-1,	-1,	-1,	-1,	46|
-1,	-1,	-1,	-1,	-1,	5,	-1,	24,	28,	-1,	54,	9,	-1,	62,	-1,	51,	-1,	52,	34,	-1,	-1,	-1,	42,	20,	58,	50,	-1,	43,	-1,	-1,	44,	48,	56,	33,	-1,	12,	-1,	-1,	60,	-1,	45,	27,	-1,	-1,	4,	-1,	-1,	30,	-1,	-1,	-1,	35,	-1,	-1,	39,	61,	-1,	-1,	1,	-1,	25,	15,	-1,	-1|
-1,	35,	56,	-1,	44,	51,	14,	-1,	48,	-1,	-1,	-1,	34,	11,	-1,	7,	33,	-1,	-1,	32,	31,	-1,	-1,	50,	-1,	-1,	-1,	62,	55,	-1,	-1,	-1,	63,	38,	28,	-1,	24,	52,	15,	30,	-1,	-1,	-1,	-1,	40,	41,	-1,	-1,	23,	43,	29,	42,	21,	45,	-1,	-1,	-1,	-1,	-1,	54,	-1,	16,	53,	-1|
50,	-1,	15,	64,	-1,	30,	-1,	-1,	13,	-1,	59,	43,	-1,	-1,	5,	46,	60,	-1,	24,	16,	-1,	44,	57,	36,	-1,	-1,	28,	-1,	-1,	-1,	29,	-1,	-1,	-1,	35,	-1,	-1,	-1,	-1,	-1,	32,	-1,	-1,	10,	-1,	-1,	-1,	51,	55,	-1,	1,	-1,	22,	26,	-1,	53,	-1,	-1,	-1,	-1,	-1,	11,	7,	-1|
-1,	-1,	-1,	60,	32,	-1,	-1,	-1,	-1,	-1,	-1,	31,	36,	-1,	20,	-1,	-1,	15,	51,	12,	-1,	21,	62,	-1,	7,	-1,	33,	-1,	-1,	-1,	61,	35,	14,	-1,	-1,	-1,	-1,	-1,	22,	18,	64,	-1,	53,	-1,	34,	-1,	3,	17,	48,	-1,	-1,	24,	44,	-1,	58,	50,	23,	-1,	52,	-1,	-1,	-1,	-1,	-1|
-1,	-1,	49,	35,	17,	4,	-1,	-1,	-1,	3,	6,	-1,	10,	20,	-1,	-1,	59,	12,	-1,	-1,	-1,	26,	21,	-1,	-1,	-1,	8,	-1,	-1,	22,	-1,	-1,	45,	-1,	38,	51,	-1,	27,	57,	52,	-1,	16,	24,	5,	42,	-1,	58,	9,	40,	-1,	33,	50,	19,	64,	2,	29,	7,	-1,	-1,	43,	44,	-1,	-1,	56|
43,	15,	-1,	40,	-1,	26,	9,	8,	-1,	-1,	-1,	59,	33,	-1,	44,	52,	54,	-1,	61,	50,	-1,	19,	-1,	29,	-1,	-1,	-1,	35,	-1,	-1,	-1,	6,	-1,	37,	46,	24,	63,	-1,	13,	17,	14,	64,	-1,	45,	-1,	49,	21,	-1,	41,	47,	38,	32,	7,	4,	-1,	28,	5,	53,	-1,	-1,	62,	39,	-1,	-1|
-1,	-1,	20,	41,	-1,	-1,	-1,	44,	34,	1,	-1,	-1,	14,	-1,	21,	9,	45,	-1,	-1,	10,	-1,	7,	-1,	8,	53,	-1,	-1,	32,	39,	-1,	-1,	-1,	58,	-1,	49,	-1,	2,	-1,	54,	-1,	56,	-1,	-1,	-1,	-1,	-1,	-1,	-1,	-1,	-1,	-1,	-1,	-1,	16,	-1,	-1,	-1,	-1,	29,	59,	19,	24,	-1,	26|
-1,	19,	50,	6,	24,	32,	1,	-1,	-1,	-1,	-1,	57,	18,	8,	-1,	-1,	-1,	49,	11,	-1,	40,	56,	4,	53,	-1,	-1,	38,	41,	34,	-1,	31,	-1,	59,	-1,	-1,	-1,	-1,	-1,	7,	36,	13,	-1,	20,	48,	12,	-1,	-1,	33,	-1,	62,	5,	-1,	-1,	-1,	-1,	-1,	-1,	-1,	30,	28,	-1,	23,	-1,	9|
52,	-1,	-1,	51,	-1,	-1,	3,	-1,	-1,	-1,	-1,	23,	-1,	29,	-1,	-1,	-1,	-1,	-1,	-1,	-1,	24,	-1,	-1,	50,	-1,	49,	-1,	45,	58,	36,	4,	-1,	-1,	-1,	-1,	55,	61,	32,	20,	-1,	10,	19,	34,	43,	31,	62,	-1,	-1,	-1,	-1,	1,	-1,	-1,	-1,	-1,	8,	-1,	13,	-1,	40,	22,	-1,	14|
-1,	-1,	61,	31,	55,	29,	33,	-1,	-1,	-1,	-1,	-1,	42,	50,	-1,	-1,	37,	41,	60,	-1,	17,	18,	63,	32,	16,	-1,	-1,	21,	-1,	47,	13,	19,	15,	-1,	-1,	-1,	9,	44,	56,	-1,	-1,	52,	-1,	-1,	-1,	-1,	30,	35,	39,	-1,	-1,	-1,	-1,	-1,	57,	-1,	-1,	36,	46,	3,	-1,	-1,	45,	-1|
-1,	59,	-1,	-1,	7,	56,	-1,	64,	32,	53,	49,	39,	-1,	-1,	41,	28,	44,	-1,	-1,	-1,	2,	52,	31,	22,	-1,	-1,	11,	-1,	43,	33,	26,	-1,	-1,	14,	-1,	62,	16,	-1,	4,	-1,	-1,	40,	-1,	1,	-1,	-1,	61,	36,	10,	-1,	-1,	-1,	-1,	-1,	55,	-1,	35,	-1,	-1,	27,	-1,	-1,	60,	-1|
-1,	63,	36,	42,	62,	-1,	-1,	13,	46,	-1,	-1,	-1,	43,	-1,	27,	-1,	1,	-1,	16,	-1,	14,	51,	35,	-1,	-1,	-1,	-1,	-1,	7,	52,	-1,	-1,	53,	-1,	-1,	-1,	-1,	10,	5,	-1,	-1,	17,	29,	-1,	39,	-1,	-1,	-1,	-1,	24,	9,	-1,	6,	20,	-1,	-1,	-1,	61,	58,	50,	33,	57,	25,	-1|
16,	-1,	-1,	11,	14,	53,	-1,	-1,	-1,	-1,	46,	1,	51,	-1,	-1,	-1,	3,	-1,	-1,	55,	10,	-1,	-1,	21,	47,	30,	34,	60,	-1,	-1,	62,	-1,	17,	18,	-1,	-1,	-1,	-1,	38,	-1,	37,	44,	-1,	-1,	-1,	-1,	54,	61,	28,	-1,	-1,	-1,	-1,	43,	7,	-1,	40,	32,	-1,	-1,	-1,	35,	-1,	15|
61,	-1,	55,	-1,	33,	62,	-1,	-1,	64,	-1,	57,	-1,	-1,	-1,	-1,	-1,	48,	11,	53,	25,	41,	14,	20,	-1,	6,	-1,	37,	13,	54,	-1,	21,	-1,	-1,	52,	2,	-1,	5,	46,	27,	-1,	16,	-1,	-1,	-1,	18,	26,	39,	-1,	-1,	12,	60,	-1,	-1,	-1,	51,	30,	-1,	58,	-1,	-1,	-1,	56,	10,	-1|
64,	-1,	6,	-1,	23,	-1,	24,	-1,	61,	62,	48,	-1,	30,	34,	-1,	38,	2,	-1,	-1,	42,	15,	54,	12,	5,	49,	-1,	-1,	-1,	22,	31,	-1,	-1,	-1,	63,	25,	-1,	-1,	-1,	-1,	-1,	-1,	55,	40,	56,	-1,	46,	45,	20,	16,	32,	27,	29,	37,	41,	47,	13,	57,	-1,	-1,	11,	-1,	33,	-1,	-1|
42,	43,	4,	21,	-1,	57,	-1,	-1,	23,	50,	35,	28,	-1,	41,	-1,	-1,	26,	17,	-1,	-1,	-1,	9,	-1,	18,	3,	39,	63,	19,	-1,	-1,	48,	-1,	-1,	-1,	-1,	-1,	34,	-1,	64,	-1,	22,	-1,	-1,	-1,	52,	29,	10,	32,	-1,	55,	14,	61,	58,	-1,	49,	-1,	24,	13,	44,	-1,	2,	-1,	37,	-1|
-1,	-1,	-1,	54,	-1,	44,	37,	-1,	-1,	-1,	-1,	-1,	-1,	55,	-1,	20,	-1,	45,	-1,	22,	-1,	-1,	-1,	6,	-1,	32,	-1,	17,	25,	14,	-1,	28,	-1,	-1,	50,	-1,	-1,	-1,	-1,	-1,	-1,	60,	15,	-1,	64,	13,	-1,	-1,	-1,	48,	-1,	-1,	-1,	-1,	24,	3,	-1,	34,	62,	63,	29,	-1,	-1,	12|
3,	28,	-1,	47,	-1,	-1,	-1,	45,	44,	14,	-1,	-1,	15,	16,	-1,	2,	-1,	-1,	37,	13,	23,	-1,	-1,	-1,	33,	38,	29,	-1,	46,	56,	40,	61,	24,	-1,	-1,	19,	21,	22,	41,	48,	57,	-1,	5,	25,	-1,	63,	9,	-1,	-1,	-1,	-1,	-1,	4,	35,	-1,	20,	-1,	55,	53,	18,	42,	-1,	-1,	6|
-1,	-1,	46,	20,	48,	-1,	-1,	-1,	54,	58,	-1,	-1,	-1,	32,	12,	17,	-1,	24,	-1,	-1,	28,	39,	-1,	60,	4,	-1,	42,	-1,	-1,	-1,	-1,	18,	49,	-1,	-1,	9,	-1,	37,	47,	1,	38,	-1,	34,	-1,	51,	-1,	-1,	7,	11,	59,	-1,	-1,	-1,	-1,	8,	62,	30,	-1,	-1,	-1,	45,	19,	-1,	23|
-1,	41,	35,	-1,	-1,	17,	-1,	38,	59,	-1,	47,	24,	45,	56,	37,	33,	-1,	-1,	27,	-1,	49,	-1,	43,	-1,	51,	-1,	10,	-1,	-1,	-1,	58,	-1,	-1,	15,	26,	-1,	13,	-1,	6,	40,	-1,	48,	-1,	-1,	-1,	42,	53,	28,	46,	-1,	-1,	-1,	1,	44,	-1,	-1,	-1,	54,	64,	61,	20,	-1,	3,	-1|
58,	-1,	47,	-1,	2,	-1,	-1,	36,	-1,	59,	9,	34,	8,	46,	-1,	-1,	-1,	30,	-1,	-1,	37,	17,	-1,	-1,	60,	-1,	39,	38,	44,	16,	-1,	13,	-1,	35,	-1,	32,	-1,	-1,	-1,	-1,	-1,	-1,	18,	-1,	-1,	-1,	-1,	-1,	61,	-1,	43,	45,	-1,	24,	22,	-1,	20,	12,	-1,	49,	-1,	-1,	-1,	33|
15,	-1,	10,	-1,	59,	35,	40,	30,	-1,	29,	52,	-1,	-1,	25,	-1,	61,	-1,	9,	-1,	-1,	27,	36,	60,	1,	21,	3,	50,	7,	58,	-1,	-1,	63,	46,	31,	22,	-1,	-1,	-1,	-1,	-1,	-1,	-1,	-1,	-1,	-1,	33,	-1,	-1,	47,	-1,	41,	-1,	51,	11,	-1,	-1,	-1,	43,	4,	-1,	16,	28,	-1,	19|
20,	25,	-1,	-1,	-1,	43,	-1,	-1,	45,	-1,	23,	30,	-1,	-1,	-1,	55,	19,	53,	-1,	-1,	-1,	4,	-1,	34,	-1,	-1,	61,	-1,	-1,	59,	-1,	36,	47,	-1,	5,	-1,	-1,	-1,	-1,	-1,	-1,	-1,	-1,	-1,	-1,	37,	28,	14,	7,	-1,	52,	-1,	-1,	-1,	-1,	-1,	-1,	-1,	-1,	-1,	-1,	-1,	50,	-1|
-1,	-1,	14,	-1,	3,	48,	41,	-1,	-1,	-1,	1,	-1,	-1,	21,	47,	26,	-1,	-1,	28,	57,	12,	2,	29,	-1,	-1,	-1,	-1,	23,	5,	-1,	33,	-1,	-1,	39,	13,	-1,	-1,	43,	-1,	-1,	-1,	-1,	58,	-1,	-1,	-1,	55,	-1,	-1,	19,	59,	34,	-1,	53,	62,	-1,	42,	-1,	25,	24,	-1,	45,	-1,	38|
-1,	52,	-1,	7,	-1,	-1,	64,	-1,	37,	-1,	50,	-1,	-1,	17,	-1,	60,	32,	46,	18,	-1,	58,	43,	26,	24,	-1,	-1,	27,	-1,	20,	-1,	-1,	25,	-1,	36,	-1,	57,	4,	-1,	8,	61,	-1,	-1,	62,	-1,	-1,	1,	-1,	2,	-1,	-1,	-1,	-1,	-1,	-1,	-1,	-1,	-1,	48,	-1,	-1,	30,	-1,	59,	53|
32,	-1,	54,	19,	56,	-1,	-1,	50,	-1,	36,	42,	-1,	11,	10,	3,	-1,	38,	-1,	-1,	52,	44,	-1,	-1,	45,	62,	-1,	47,	-1,	24,	30,	43,	14,	-1,	53,	-1,	20,	48,	7,	-1,	-1,	-1,	61,	16,	-1,	60,	-1,	-1,	-1,	2,	58,	4,	-1,	-1,	-1,	-1,	33,	39,	29,	-1,	40,	37,	-1,	9,	-1|
4,	-1,	-1,	45,	-1,	-1,	-1,	55,	-1,	5,	-1,	44,	49,	64,	-1,	27,	50,	-1,	-1,	3,	61,	25,	41,	-1,	-1,	-1,	-1,	-1,	-1,	-1,	57,	-1,	19,	58,	63,	33,	-1,	6,	-1,	21,	20,	30,	23,	-1,	10,	-1,	-1,	43,	36,	-1,	56,	-1,	-1,	-1,	-1,	-1,	2,	-1,	32,	-1,	-1,	47,	22,	31|
-1,	-1,	24,	22,	-1,	-1,	49,	-1,	19,	20,	43,	-1,	-1,	-1,	53,	-1,	11,	40,	-1,	5,	35,	-1,	10,	64,	28,	42,	52,	31,	-1,	-1,	-1,	17,	-1,	-1,	-1,	-1,	-1,	-1,	37,	-1,	-1,	-1,	25,	36,	32,	59,	51,	44,	-1,	-1,	8,	-1,	-1,	39,	-1,	55,	56,	-1,	15,	7,	-1,	-1,	14,	62|];
