sudoku-ls/benchmarks_LEQ/INST_64x64/50/inst64x64_50_55.txt
8
1
63	42	34	-1	-1	-1	-1	-1	27	-1	-1	-1	39	58	-1	-1	-1	-1	14	-1	52	8	-1	33	44	2	-1	-1	-1	-1	32	23	-1	-1	-1	38	-1	-1	-1	41	-1	54	-1	-1	11	-1	19	53	24	9	45	6	59	7	28	-1	25	-1	16	-1	-1	21	-1	5
28	-1	31	-1	-1	39	35	-1	-1	46	36	37	-1	51	52	-1	55	54	3	-1	-1	27	-1	42	59	10	14	33	61	40	16	29	-1	-1	-1	-1	-1	19	62	-1	18	-1	45	-1	-1	5	-1	4	-1	-1	-1	41	-1	17	-1	-1	-1	-1	-1	48	13	44	15	20
-1	-1	-1	-1	-1	-1	-1	-1	-1	-1	15	-1	-1	28	25	19	-1	-1	20	-1	-1	40	-1	59	-1	-1	4	-1	-1	-1	54	-1	31	43	-1	-1	-1	63	-1	8	9	-1	-1	61	21	-1	-1	-1	-1	35	-1	-1	5	-1	46	48	-1	7	-1	-1	51	-1	-1	-1
21	62	44	-1	8	23	-1	-1	-1	35	56	7	-1	60	11	-1	-1	48	41	-1	64	13	32	-1	-1	-1	46	12	-1	-1	9	-1	-1	-1	-1	40	-1	18	-1	16	31	38	-1	29	36	-1	-1	6	49	-1	51	-1	2	-1	-1	-1	-1	19	3	-1	-1	58	30	1
-1	-1	-1	-1	-1	-1	-1	-1	50	-1	2	33	-1	1	62	48	63	-1	21	-1	-1	-1	-1	-1	41	-1	-1	-1	38	-1	19	45	64	30	-1	13	35	11	52	-1	60	26	-1	16	-1	7	-1	-1	-1	-1	23	57	3	42	56	58	12	31	10	36	-1	18	43	59
-1	5	48	-1	50	7	-1	11	-1	-1	-1	41	-1	-1	-1	-1	29	35	49	30	-1	-1	-1	-1	-1	21	-1	-1	-1	24	8	20	-1	-1	-1	-1	44	-1	58	-1	2	-1	-1	15	-1	10	-1	-1	-1	-1	31	-1	54	62	1	-1	-1	52	-1	-1	23	-1	-1	-1
51	33	-1	-1	-1	-1	-1	2	30	-1	-1	-1	31	54	29	12	47	-1	7	6	-1	38	22	17	25	64	62	-1	35	-1	-1	-1	3	-1	10	48	-1	34	-1	-1	42	-1	44	-1	-1	-1	-1	40	52	36	-1	20	-1	-1	-1	-1	-1	-1	-1	32	26	-1	39	-1
-1	-1	-1	16	-1	-1	-1	26	-1	-1	55	53	5	-1	-1	44	-1	56	-1	24	-1	-1	2	46	-1	-1	-1	-1	52	-1	60	31	-1	-1	4	1	-1	59	51	-1	3	-1	17	-1	-1	34	-1	48	63	37	15	21	-1	-1	-1	-1	11	6	-1	-1	54	50	-1	-1
24	32	-1	-1	-1	-1	57	54	-1	-1	26	21	16	-1	35	-1	-1	-1	-1	60	63	-1	-1	48	-1	-1	45	-1	-1	62	-1	53	50	-1	41	11	-1	17	-1	-1	-1	-1	-1	28	-1	64	31	23	-1	-1	2	7	-1	13	10	51	37	-1	-1	1	-1	6	58	22
40	-1	21	-1	-1	-1	4	58	1	41	38	56	-1	-1	19	-1	-1	47	25	-1	16	34	-1	26	11	-1	44	8	49	17	3	52	35	-1	23	54	51	5	-1	-1	6	-1	-1	18	-1	-1	-1	13	12	-1	-1	-1	-1	-1	29	64	36	24	14	33	32	63	31	55
-1	2	33	36	63	1	-1	37	-1	-1	-1	-1	12	6	-1	40	7	22	-1	-1	-1	-1	45	44	31	-1	48	39	23	-1	34	-1	52	-1	-1	-1	25	13	-1	-1	50	-1	-1	32	35	-1	-1	-1	27	21	61	38	-1	30	-1	-1	43	8	-1	4	41	60	20	57
-1	56	-1	-1	-1	49	-1	-1	5	-1	-1	51	24	-1	-1	23	-1	-1	-1	-1	-1	-1	-1	31	-1	13	40	-1	-1	-1	22	-1	-1	-1	53	-1	3	48	-1	37	-1	-1	-1	-1	17	21	2	-1	-1	-1	-1	62	-1	1	25	32	44	28	11	30	-1	54	42	-1
22	-1	17	5	41	34	27	60	-1	-1	-1	10	-1	-1	-1	3	24	-1	1	-1	-1	-1	-1	11	30	-1	15	-1	-1	-1	55	38	-1	-1	-1	-1	29	28	31	-1	51	7	-1	53	8	-1	-1	16	20	14	-1	26	9	58	-1	23	-1	-1	21	45	-1	-1	35	-1
-1	-1	3	29	-1	-1	8	18	52	-1	27	-1	-1	-1	63	32	-1	-1	-1	54	-1	-1	30	-1	-1	57	-1	-1	-1	9	-1	10	-1	20	14	-1	-1	-1	2	4	5	-1	42	59	-1	36	40	-1	-1	-1	-1	-1	35	37	-1	11	-1	-1	-1	-1	-1	-1	-1	-1
-1	-1	51	-1	-1	10	-1	9	55	-1	-1	11	22	-1	-1	-1	4	21	58	-1	42	-1	38	13	-1	35	-1	2	41	63	50	26	-1	-1	27	47	18	15	-1	-1	19	-1	-1	-1	46	-1	-1	34	-1	39	-1	-1	-1	-1	-1	-1	-1	59	17	-1	-1	-1	61	48
23	13	53	38	-1	-1	-1	-1	17	-1	-1	46	-1	36	-1	54	-1	10	-1	40	-1	-1	14	-1	-1	37	-1	-1	-1	61	-1	-1	22	21	8	44	-1	-1	-1	57	-1	-1	9	41	-1	-1	60	26	-1	-1	-1	-1	18	33	-1	31	51	64	-1	-1	-1	-1	-1	-1
-1	-1	52	63	49	38	-1	15	9	-1	21	50	64	-1	59	5	56	-1	40	17	-1	10	46	-1	-1	-1	22	-1	-1	-1	12	-1	-1	11	30	-1	-1	-1	-1	47	-1	-1	32	-1	25	-1	24	-1	3	-1	-1	-1	-1	-1	20	-1	-1	-1	28	39	35	62	36	-1
-1	-1	64	-1	-1	22	-1	-1	-1	-1	40	-1	3	57	-1	42	61	34	31	19	26	-1	-1	-1	-1	55	7	10	27	-1	38	-1	25	-1	-1	-1	-1	-1	-1	-1	59	11	63	-1	16	9	-1	29	-1	33	-1	4	-1	6	18	-1	-1	23	-1	-1	5	30	48	32
-1	20	-1	12	-1	46	30	-1	58	56	19	29	26	15	-1	10	-1	-1	-1	51	24	-1	6	47	-1	5	-1	-1	33	32	-1	-1	38	1	-1	-1	54	-1	59	-1	49	-1	43	-1	27	3	-1	21	35	41	34	-1	-1	14	23	-1	-1	25	-1	44	-1	61	8	40
35	7	23	2	-1	41	-1	31	14	-1	45	-1	-1	-1	-1	-1	21	-1	-1	-1	38	-1	11	-1	46	-1	25	44	3	29	-1	47	-1	-1	-1	63	-1	-1	-1	19	62	-1	26	22	-1	-1	17	-1	-1	-1	49	10	43	50	-1	12	-1	-1	-1	-1	-1	-1	-1	54
54	-1	-1	-1	-1	11	-1	16	-1	-1	-1	17	-1	52	43	22	-1	2	50	35	36	48	39	12	64	-1	-1	20	-1	-1	63	57	-1	-1	-1	-1	46	62	-1	5	-1	-1	-1	51	-1	58	38	10	-1	-1	-1	9	-1	40	61	-1	-1	4	-1	14	-1	37	13	-1
26	10	-1	34	-1	-1	-1	-1	53	-1	-1	-1	46	-1	1	-1	9	27	-1	41	-1	-1	16	-1	14	31	19	45	4	51	35	-1	-1	3	6	-1	17	40	61	55	-1	28	57	52	-1	56	23	-1	-1	54	-1	-1	60	59	5	47	58	42	-1	64	-1	-1	38	-1
-1	-1	-1	-1	27	-1	-1	51	-1	23	11	54	28	24	-1	4	42	-1	15	62	-1	-1	59	-1	-1	48	-1	-1	50	-1	37	49	36	12	-1	-1	-1	57	-1	35	46	41	-1	44	7	-1	-1	-1	8	-1	32	-1	-1	25	-1	-1	16	-1	43	-1	52	-1	19	-1
-1	-1	5	32	-1	19	25	43	16	-1	-1	-1	-1	35	2	39	-1	33	-1	7	-1	-1	18	-1	40	-1	-1	-1	-1	6	41	54	-1	-1	51	4	20	49	-1	34	-1	-1	1	-1	37	-1	-1	-1	-1	56	44	-1	28	52	31	-1	60	26	-1	15	-1	27	46	-1
-1	50	19	10	39	-1	55	-1	51	-1	-1	47	-1	14	46	8	-1	25	-1	-1	22	42	-1	-1	38	54	24	27	-1	-1	-1	12	9	32	-1	34	-1	-1	-1	-1	-1	18	-1	-1	44	-1	16	-1	-1	-1	37	59	-1	56	-1	-1	61	-1	-1	-1	21	36	23	-1
1	14	18	-1	26	60	44	57	35	49	-1	-1	7	53	54	-1	-1	-1	43	8	-1	-1	-1	37	-1	-1	32	28	29	42	15	-1	-1	5	61	-1	50	2	24	-1	63	-1	-1	30	41	-1	-1	-1	38	6	-1	-1	34	36	-1	19	-1	-1	39	56	-1	9	-1	10
-1	12	16	25	-1	-1	-1	-1	-1	-1	-1	-1	-1	18	-1	-1	-1	-1	54	-1	-1	59	34	10	-1	-1	-1	22	37	57	14	-1	-1	51	39	41	-1	-1	19	38	-1	-1	-1	-1	49	-1	-1	52	1	-1	-1	30	50	-1	-1	44	62	-1	-1	29	-1	-1	32	4
36	6	-1	-1	-1	64	20	-1	-1	-1	-1	-1	-1	-1	15	-1	-1	-1	-1	-1	-1	12	-1	30	10	49	-1	-1	-1	44	23	46	26	-1	-1	55	47	8	1	45	-1	-1	-1	-1	-1	39	5	-1	-1	-1	-1	51	52	2	4	-1	3	50	59	19	-1	-1	33	28
-1	27	-1	-1	-1	-1	13	34	-1	48	-1	38	2	-1	-1	-1	49	-1	-1	-1	32	47	15	7	19	-1	-1	-1	60	-1	5	-1	-1	-1	12	21	-1	-1	18	-1	-1	-1	14	-1	53	51	-1	1	-1	-1	-1	-1	39	-1	-1	25	52	16	20	-1	-1	43	24	11
-1	21	-1	-1	54	-1	53	-1	36	63	-1	-1	60	-1	10	58	-1	-1	-1	33	39	-1	-1	19	35	18	26	52	30	11	59	-1	-1	56	-1	49	-1	-1	-1	-1	23	-1	46	43	-1	55	20	-1	13	45	-1	8	-1	47	-1	-1	34	-1	38	22	-1	17	57	44
-1	-1	-1	37	52	58	23	-1	-1	44	-1	26	-1	3	22	16	51	6	45	-1	-1	-1	-1	-1	61	53	13	-1	-1	-1	-1	-1	43	29	57	17	-1	36	20	-1	-1	32	-1	-1	-1	8	-1	31	-1	27	-1	-1	12	-1	-1	7	15	30	-1	-1	18	1	-1	35
30	47	11	9	-1	24	-1	22	4	-1	-1	-1	40	-1	55	-1	35	-1	57	-1	-1	-1	27	-1	34	-1	17	-1	-1	43	-1	21	13	48	-1	6	59	53	44	54	10	-1	-1	-1	2	-1	-1	12	-1	-1	-1	28	23	-1	60	15	26	-1	-1	58	-1	8	5	7
59	45	28	-1	37	-1	43	-1	33	-1	61	40	44	-1	-1	24	53	3	19	38	-1	30	56	-1	15	-1	-1	-1	18	39	-1	-1	57	9	-1	46	62	-1	-1	-1	54	-1	21	-1	31	16	1	-1	51	11	-1	-1	14	5	-1	-1	-1	-1	-1	-1	27	29	4	-1
-1	-1	1	55	-1	-1	-1	-1	-1	-1	-1	52	50	30	-1	35	-1	63	48	-1	9	-1	-1	43	-1	-1	-1	37	31	-1	20	22	41	-1	-1	-1	-1	-1	-1	11	15	-1	38	-1	26	-1	7	-1	-1	64	-1	18	-1	54	34	-1	-1	-1	12	-1	59	-1	2	13
-1	-1	22	-1	31	-1	26	61	-1	-1	37	42	-1	-1	4	21	-1	-1	10	-1	45	6	49	54	32	-1	-1	30	11	-1	-1	-1	-1	-1	-1	-1	-1	-1	36	58	-1	20	-1	57	29	44	-1	62	25	-1	-1	-1	15	19	38	8	28	3	35	34	24	-1	-1	17
11	-1	62	57	47	-1	54	-1	56	15	22	-1	53	12	26	18	-1	14	29	37	-1	35	-1	27	45	-1	16	40	-1	-1	24	-1	34	-1	42	-1	-1	51	-1	-1	28	-1	-1	23	6	-1	43	-1	9	7	-1	2	-1	-1	30	-1	-1	39	50	-1	58	-1	44	-1
7	-1	-1	3	-1	5	-1	24	28	-1	-1	9	-1	62	-1	51	-1	-1	-1	59	-1	-1	-1	-1	-1	-1	-1	43	2	-1	-1	-1	-1	-1	16	12	-1	-1	-1	31	-1	-1	-1	-1	4	11	-1	30	17	-1	-1	-1	-1	-1	39	61	-1	14	1	-1	25	15	40	41
39	35	-1	27	44	51	14	-1	-1	-1	-1	-1	-1	11	-1	-1	-1	-1	-1	-1	-1	64	-1	50	13	-1	5	-1	-1	10	-1	1	63	-1	-1	-1	24	52	15	-1	-1	2	-1	58	-1	41	-1	-1	23	-1	-1	-1	-1	45	-1	36	-1	-1	57	54	47	-1	53	60
50	34	-1	-1	25	30	42	-1	13	-1	-1	43	-1	-1	5	46	-1	58	24	16	18	-1	-1	36	8	-1	-1	14	-1	-1	-1	-1	20	4	35	-1	6	3	23	2	-1	9	-1	10	48	-1	56	51	-1	-1	-1	-1	22	26	-1	53	-1	62	45	-1	-1	11	-1	61
41	4	2	60	-1	-1	-1	46	49	-1	16	-1	-1	-1	-1	-1	-1	-1	51	12	11	21	-1	-1	-1	6	33	-1	63	26	61	35	14	-1	59	-1	39	54	22	-1	-1	5	53	-1	-1	-1	3	-1	-1	-1	47	24	44	-1	58	50	-1	9	52	-1	43	-1	56	30
25	11	49	35	-1	4	39	14	63	3	6	-1	-1	20	-1	13	-1	12	-1	-1	-1	-1	-1	-1	54	62	8	-1	48	-1	1	-1	-1	23	38	51	60	27	-1	-1	53	-1	-1	5	-1	-1	-1	-1	-1	34	33	-1	19	64	2	29	7	-1	-1	-1	-1	32	41	-1
43	15	-1	40	-1	-1	9	-1	-1	-1	30	-1	-1	22	-1	-1	54	-1	61	-1	-1	19	3	29	-1	-1	55	35	10	-1	27	6	18	37	46	24	-1	31	-1	17	-1	64	51	-1	23	49	-1	-1	-1	47	38	32	-1	4	-1	28	5	-1	34	2	-1	39	-1	-1
37	22	-1	-1	-1	28	48	44	34	1	31	55	14	5	-1	-1	-1	-1	-1	10	-1	-1	-1	-1	-1	17	3	32	39	-1	51	42	58	-1	49	50	-1	-1	54	-1	56	-1	4	-1	-1	-1	6	60	30	-1	-1	-1	-1	-1	-1	27	38	18	29	-1	-1	-1	11	26
-1	19	50	-1	-1	32	1	10	47	16	-1	-1	-1	8	-1	45	-1	49	-1	-1	40	-1	4	-1	29	61	38	41	-1	-1	31	-1	59	26	21	35	-1	39	7	36	-1	37	-1	48	-1	-1	-1	33	-1	62	-1	22	-1	-1	14	-1	-1	-1	30	-1	-1	-1	52	-1
-1	-1	-1	51	38	-1	-1	-1	-1	-1	64	-1	-1	29	-1	25	-1	42	39	-1	5	24	-1	-1	50	59	49	-1	45	58	36	-1	-1	41	-1	28	-1	-1	32	20	-1	10	-1	34	-1	-1	62	-1	37	18	17	1	11	-1	-1	-1	-1	-1	13	-1	40	-1	16	14
-1	54	61	-1	-1	-1	33	5	11	7	58	48	42	-1	-1	62	-1	-1	-1	-1	-1	-1	63	-1	16	-1	2	21	-1	47	13	19	15	6	-1	-1	9	-1	-1	-1	-1	-1	-1	38	-1	-1	-1	35	-1	-1	53	12	49	-1	57	43	10	36	46	3	-1	20	-1	-1
-1	-1	45	23	7	-1	-1	-1	-1	-1	-1	-1	19	-1	41	-1	44	-1	-1	34	2	52	-1	-1	5	-1	11	24	-1	-1	26	-1	-1	14	47	-1	-1	-1	-1	-1	-1	40	-1	-1	3	-1	-1	-1	10	-1	21	-1	42	51	55	46	35	17	6	-1	-1	48	60	37
2	63	-1	42	-1	47	21	-1	46	26	-1	15	-1	40	-1	37	1	-1	-1	48	14	-1	-1	38	12	-1	-1	-1	7	-1	18	-1	53	19	-1	3	11	-1	-1	22	-1	-1	-1	55	39	32	8	-1	45	24	-1	-1	6	-1	-1	56	-1	-1	58	50	33	-1	25	49
16	-1	-1	11	14	-1	-1	29	-1	13	-1	-1	-1	26	42	-1	3	19	-1	55	-1	50	-1	-1	47	30	-1	-1	57	-1	62	-1	-1	18	36	31	-1	-1	38	39	37	-1	-1	-1	-1	23	-1	61	28	5	25	-1	63	-1	-1	45	-1	32	48	52	-1	-1	-1	-1
-1	-1	55	8	33	-1	32	-1	64	22	57	-1	4	7	36	29	-1	11	-1	-1	41	14	20	40	-1	23	37	-1	54	45	-1	-1	-1	52	-1	59	-1	46	-1	-1	-1	49	35	-1	-1	-1	39	3	50	12	60	-1	38	-1	51	30	-1	-1	47	9	28	-1	10	-1
64	-1	-1	-1	-1	18	-1	1	61	-1	-1	3	-1	34	-1	-1	2	51	-1	42	15	54	12	5	-1	-1	-1	-1	-1	-1	-1	-1	-1	63	-1	14	43	58	10	53	-1	55	-1	56	-1	46	-1	-1	-1	32	27	-1	-1	41	47	13	57	60	8	11	7	33	-1	39
42	-1	-1	21	5	-1	-1	56	-1	-1	-1	28	25	41	40	11	26	17	-1	-1	46	-1	7	18	3	39	-1	19	53	1	48	8	51	-1	-1	-1	34	-1	64	62	-1	-1	-1	12	52	-1	-1	-1	33	-1	14	-1	-1	-1	-1	-1	-1	-1	44	-1	-1	-1	-1	27
-1	30	-1	-1	51	-1	37	40	-1	27	-1	5	21	55	31	-1	-1	-1	38	-1	8	58	-1	6	-1	-1	-1	17	-1	14	-1	28	-1	7	50	-1	33	-1	-1	23	1	-1	-1	-1	64	13	36	-1	57	48	42	19	-1	18	-1	3	-1	-1	62	-1	-1	46	-1	12
3	28	7	-1	10	-1	-1	-1	-1	-1	60	49	15	16	39	-1	30	-1	-1	-1	-1	1	-1	-1	33	38	-1	11	-1	-1	40	-1	-1	8	-1	19	21	-1	-1	-1	57	-1	5	-1	58	63	-1	-1	-1	17	26	52	-1	-1	36	20	-1	55	-1	18	-1	31	-1	6
13	26	46	20	48	25	2	27	-1	-1	-1	-1	-1	32	12	17	-1	-1	35	-1	28	39	-1	-1	4	43	42	-1	-1	-1	-1	18	-1	61	-1	-1	57	37	47	-1	38	50	34	-1	51	14	-1	7	11	59	-1	53	-1	22	8	62	-1	41	-1	5	-1	19	21	23
60	41	35	52	19	17	-1	38	59	18	-1	-1	45	56	37	-1	34	32	-1	63	-1	-1	43	-1	-1	36	-1	5	12	50	-1	7	-1	15	-1	-1	13	-1	6	-1	8	48	31	-1	-1	-1	-1	28	46	-1	39	23	-1	-1	-1	-1	-1	-1	64	61	20	4	3	25
-1	51	-1	28	2	-1	-1	36	40	59	-1	-1	-1	-1	7	-1	-1	30	42	-1	37	17	48	55	-1	-1	-1	-1	44	16	53	-1	1	-1	11	32	-1	25	3	15	-1	-1	-1	-1	50	57	-1	-1	-1	-1	-1	45	64	24	22	14	-1	-1	54	49	6	-1	63	-1
15	-1	-1	18	59	35	40	-1	-1	29	52	-1	-1	25	-1	-1	-1	9	-1	49	27	-1	60	1	21	-1	50	-1	-1	-1	6	63	-1	-1	22	-1	-1	-1	12	-1	39	34	-1	24	-1	33	42	-1	-1	-1	-1	-1	51	11	-1	37	-1	43	-1	57	-1	-1	55	19
20	25	-1	26	11	-1	-1	-1	-1	-1	23	30	57	13	-1	55	19	-1	22	56	21	4	-1	-1	-1	46	61	-1	8	59	-1	-1	47	62	-1	42	40	29	-1	-1	-1	15	6	-1	38	37	-1	-1	7	-1	52	3	48	32	63	1	-1	44	-1	-1	-1	41	-1	-1
44	61	-1	46	-1	-1	-1	-1	-1	4	1	-1	54	-1	47	26	-1	-1	28	57	-1	-1	-1	15	56	40	64	23	-1	37	-1	-1	-1	-1	-1	-1	-1	43	50	-1	-1	22	58	9	-1	-1	-1	-1	18	-1	-1	-1	-1	-1	-1	60	-1	-1	-1	-1	36	45	-1	38
29	52	-1	7	-1	-1	-1	-1	-1	39	-1	-1	-1	-1	-1	60	-1	-1	-1	-1	58	-1	-1	24	-1	-1	27	-1	20	19	-1	-1	54	-1	-1	57	4	45	-1	61	40	47	62	3	-1	-1	-1	-1	42	38	28	-1	31	-1	15	-1	21	-1	-1	10	30	-1	59	53
-1	1	54	19	56	-1	17	50	18	-1	-1	22	-1	-1	3	-1	38	-1	-1	52	-1	-1	51	-1	62	-1	47	-1	-1	30	43	14	23	53	64	-1	-1	7	-1	-1	-1	61	-1	-1	60	-1	46	-1	-1	-1	4	25	-1	-1	-1	-1	39	-1	-1	40	37	-1	-1	-1
4	37	-1	45	60	-1	-1	55	-1	5	-1	-1	49	-1	-1	27	50	-1	-1	-1	-1	25	-1	-1	18	-1	-1	34	26	35	-1	-1	19	-1	-1	33	52	6	-1	21	-1	-1	23	-1	10	53	48	43	36	29	-1	-1	17	-1	-1	-1	-1	-1	-1	51	-1	-1	22	-1
27	57	-1	-1	-1	-1	-1	-1	19	20	43	2	58	-1	53	-1	11	-1	-1	-1	35	-1	10	64	28	42	52	-1	-1	4	-1	17	60	-1	-1	-1	38	41	-1	-1	-1	-1	25	-1	32	59	51	44	-1	30	8	-1	26	39	50	55	56	46	-1	-1	-1	3	-1	-1
64 
16 37 17 25
3 64 2 34
16 64 6 28
53 44 13 14
9 22 25 17
13 33 29 60
21 9 27 8
36 2 8 53
23 1 47 32
56 27 37 7
61 47 62 13
38 8 15 33
8 6 57 32
46 26 63 39
20 26 21 36
53 33 43 54
1 61 5 8
22 12 8 28
34 8 12 1
27 27 26 18
18 38 34 60
29 34 14 51
8 22 58 50
55 18 56 12
16 62 15 46
42 6 61 23
57 37 16 17
16 5 41 24
57 26 25 41
46 47 8 5
28 27 36 60
8 55 16 29
25 11 38 17
6 15 16 61
59 60 43 55
61 34 15 51
52 63 61 9
9 61 23 56
23 4 4 56
40 6 27 50
57 16 61 26
37 23 8 25
49 54 4 17
61 52 53 6
40 10 23 22
13 57 58 33
35 34 13 26
1 28 38 9
15 44 56 21
13 18 61 11
60 40 32 7
13 64 53 17
2 57 59 18
58 48 64 52
6 52 20 60
6 45 34 49
47 18 6 24
29 32 8 27
20 62 46 45
55 24 42 9
5 7 38 41
50 6 18 1
24 64 42 37
32 47 31 30
